data/solutions/recovery/degenerate/moderate/flexible/degenerate_moderate_instance20/20.sol
Elapsed time: 0.04
Upper bound: 194339093.0
Planning weighted value: 3154118865.0
C[0]=194339093.0
C[1]=189182480.0
C[2]=134225830.0
C[3]=99202463.0
y[0]=0
y[1]=2
y[2]=1
y[3]=1
y[4]=3
y[5]=0
y[6]=3
y[7]=2
y[8]=3
y[9]=0
y[10]=0
y[11]=2
y[12]=1
y[13]=1
y[14]=0
y[15]=1
y[16]=0
y[17]=0
y[18]=1
y[19]=3
y[20]=0
y[21]=0
y[22]=2
y[23]=1
y[24]=3
y[25]=0
y[26]=2
y[27]=1
y[28]=1
y[29]=1
y[30]=3
y[31]=0
y[32]=2
y[33]=0
y[34]=2
y[35]=1
